TCS_Benchmarks/redos_fix/regexlib2_output_distinct_2248_2247_1_0.smt2
(set-logic QF_S)
(declare-const x String)
(assert (str.in.re x (re.inter  (re.++ (re.+  (re.union  (str.to.re "\u{23}") (re.union  (str.to.re "\u{26}") (re.union  (str.to.re "\u{27}") (re.union (re.range "\u{41}" "\u{5a}") (re.union (re.range "\u{61}" "\u{7a}") (re.union  (str.to.re "\u{30}") (re.union  (str.to.re "\u{2c}") (re.union  (str.to.re "\u{31}") (re.union  (str.to.re "\u{2d}") (re.union  (str.to.re "\u{32}") (re.union  (str.to.re "\u{2e}") (re.union  (str.to.re "\u{33}") (re.union  (str.to.re "\u{2f}") (re.union  (str.to.re "\u{34}") (re.union  (str.to.re "\u{35}") (re.union  (str.to.re "\u{36}") (re.union  (str.to.re "\u{37}") (re.union  (str.to.re "\u{38}") (re.union  (str.to.re "\u{39}") (re.union  (str.to.re "\u{3b}") (re.range "\u{30}" "\u{39}"))))))))))))))))))))) ) (re.+  (re.union  (str.to.re "\u{20}") (re.union  (str.to.re "\u{23}") (re.union  (str.to.re "\u{26}") (re.union  (str.to.re "\u{27}") (re.union (re.range "\u{41}" "\u{5a}") (re.union (re.range "\u{61}" "\u{7a}") (re.union  (str.to.re "\u{30}") (re.union  (str.to.re "\u{2c}") (re.union  (str.to.re "\u{31}") (re.union  (str.to.re "\u{2d}") (re.union  (str.to.re "\u{32}") (re.union  (str.to.re "\u{2e}") (re.union  (str.to.re "\u{33}") (re.union  (str.to.re "\u{2f}") (re.union  (str.to.re "\u{34}") (re.union  (str.to.re "\u{35}") (re.union  (str.to.re "\u{36}") (re.union  (str.to.re "\u{37}") (re.union  (str.to.re "\u{38}") (re.union  (str.to.re "\u{39}") (re.union  (str.to.re "\u{3b}") (re.range "\u{30}" "\u{39}")))))))))))))))))))))) ))  (re.++ (re.+  (re.union  (str.to.re "\u{23}") (re.union  (str.to.re "\u{26}") (re.union  (str.to.re "\u{27}") (re.union (re.range "\u{41}" "\u{5a}") (re.union (re.range "\u{61}" "\u{7a}") (re.union  (str.to.re "\u{30}") (re.union  (str.to.re "\u{2c}") (re.union  (str.to.re "\u{31}") (re.union  (str.to.re "\u{2d}") (re.union  (str.to.re "\u{32}") (re.union  (str.to.re "\u{2e}") (re.union  (str.to.re "\u{33}") (re.union  (str.to.re "\u{2f}") (re.union  (str.to.re "\u{34}") (re.union  (str.to.re "\u{35}") (re.union  (str.to.re "\u{36}") (re.union  (str.to.re "\u{37}") (re.union  (str.to.re "\u{38}") (re.union  (str.to.re "\u{39}") (re.union  (str.to.re "\u{3b}") (re.range "\u{30}" "\u{39}"))))))))))))))))))))) ) (re.+  (re.union  (str.to.re "\u{20}") (re.union  (str.to.re "\u{23}") (re.union  (str.to.re "\u{26}") (re.union  (str.to.re "\u{27}") (re.union (re.range "\u{41}" "\u{5a}") (re.union (re.range "\u{61}" "\u{7a}") (re.union  (str.to.re "\u{30}") (re.union  (str.to.re "\u{2c}") (re.union  (str.to.re "\u{31}") (re.union  (str.to.re "\u{2d}") (re.union  (str.to.re "\u{32}") (re.union  (str.to.re "\u{2e}") (re.union  (str.to.re "\u{33}") (re.union  (str.to.re "\u{2f}") (re.union  (str.to.re "\u{34}") (re.union  (str.to.re "\u{35}") (re.union  (str.to.re "\u{36}") (re.union  (str.to.re "\u{37}") (re.union  (str.to.re "\u{38}") (re.union  (str.to.re "\u{39}") (re.union  (str.to.re "\u{3b}") (re.range "\u{30}" "\u{39}")))))))))))))))))))))) )) )))
(check-sat)
(get-model)