TCS_Benchmarks/redos_fix/regexlib2_output_distinct_2248_2247_1_0.txt
([#&\'A-Za-z0\,1\-2\.3\/456789;0-9]+)([ #&\'A-Za-z0\,1\-2\.3\/456789;0-9]+)
([#&\'A-Za-z0\,1\-2\.3\/456789;0-9]+)([ #&\'A-Za-z0\,1\-2\.3\/456789;0-9]+)